
(set-logic ALL) 

(declare-datatype MyList ((Nil) (Cons (head Real) (tail MyList)) )) 
(declare-fun l0 () MyList) 
(declare-fun l1 () MyList) 
(declare-fun l2 () MyList) 
(declare-fun l3 () MyList) 
(declare-fun i0 () Real) 
(declare-fun i1 () Real) 
(assert (and (is-Nil Nil) (= l0 l2)) )
(assert (is-Nil Nil) )
(assert (or (is-Nil l3) (= l2 Nil)) )
(assert (is-Nil l1) )
(assert (and (is-Nil l3) (= l1 Nil) (is-Nil Nil) (= l1 Nil)) )
(assert (= l0 l3) )
(assert (= l0 Nil) )
(assert (= l1 Nil) )
(check-sat)
